column=9;
row=9;
Board=[|0,0,1,4,3,0,2,0,0|9,4,5,0,8,0,0,0,0|0,2,0,0,0,0,4,9,1|0,0,7,0,0,0,8,0,0|0,0,0,0,0,0,0,2,0|0,0,0,0,0,0,3,1,7|0,0,0,9,0,5,0,4,8|5,7,0,0,0,0,9,0,2|0,0,0,0,4,3,5,0,0|];
horizontal=[|0,0,0,2,0,0,0,2|0,0,2,1,0,0,2,2|0,1,2,0,0,0,0,0|0,0,0,0,0,0,2,2|0,2,1,0,1,0,2,0|1,0,0,0,0,0,0,0|0,0,0,0,0,2,1,0|0,0,0,0,2,0,2,0|0,0,0,0,0,0,1,0|];
vertical=[|1,2,0,0,1,2,1,0,0|0,2,1,1,0,0,0,1,0|0,0,0,0,2,2,0,2,0|0,2,0,0,2,1,0,0,0|0,1,0,0,0,0,0,0,2|0,0,0,0,0,0,2,0,0|2,0,0,2,0,0,0,0,2|1,0,1,2,2,1,0,0,0|];
